networks/zoo_78_1185/zoo_78_1185-lower.txt
Number of groups: 38
Flow 1: {1 14 0} {14 5 0} {5 44 0} 
Flow 2: {1 2 0} {2 7 0} {7 6 0} {6 45 0} 
Flow 3: {6 9 0} {9 48 0} 
Flow 4: {14 53 0} 
Flow 5: {14 36 0} {36 37 0} {37 38 0} {38 15 0} {15 54 0} 
Flow 6: {14 16 0} {16 55 0} 
Flow 7: {5 10 0} {10 17 0} {17 56 0} 
Flow 8: {9 25 0} {25 18 0} {18 11 0} {11 19 0} {19 22 0} {22 21 0} {21 20 0} {20 59 0} 
Flow 9: {11 29 0} {29 68 0} 
Flow 10: {39 30 0} {30 69 0} 
Flow 10: {38 39 0} Flow 11: {37 76 0} 
Flow 12: {39 78 0} 
Flow 13: {2 1 0} {1 40 0} 
Flow 14: {39 3 0} {3 42 0} 
Flow 15: {2 4 0} {4 43 0} 
Flow 18: {7 46 0} 
Flow 19: {5 8 0} {8 47 0} 
Flow 21: {10 49 0} 
Flow 22: {11 50 0} 
Flow 23: {23 13 0} {13 12 0} {12 51 0} 
Flow 23: {19 23 0} Flow 24: {13 52 0} 
Flow 28: {9 17 0} Flow 29: {19 58 0} 
Flow 31: {21 60 0} 
Flow 32: {22 61 0} 
Flow 33: {23 62 0} 
Flow 34: {18 24 0} {24 63 0} 
Flow 35: {25 64 0} 
Flow 36: {29 28 0} {28 27 0} {27 66 0} 
Flow 37: {28 67 0} 
Flow 40: {3 31 0} {31 70 0} 
Flow 41: {16 33 0} {33 32 0} {32 71 0} 
Flow 42: {33 72 0} 
Flow 43: {15 34 0} {34 73 0} 
Flow 44: {14 35 0} {35 74 0} 
Flow 45: {36 75 0} 
Flow 47: {38 77 0} 
Flow 49: {3 39 0} {39 38 0} {38 37 0} {37 36 0} {36 14 0} {14 1 0} Flow 50: {2 41 0} 
Flow 53: {14 7 0} Flow 58: {17 25 0} Flow 61: {39 15 0} Flow 74: {3 30 0} Flow 79: {36 35 0} Flow 84: {4 2 0} Flow 116: {5 14 0} Flow 123: {17 9 0} Flow 130: {5 16 0} Flow 147: {16 35 0} Flow 152: {6 7 0} {7 2 0} Flow 153: {7 14 0} Flow 157: {17 8 0} Flow 159: {17 10 0} Flow 221: {8 5 0} Flow 223: {8 17 0} {9 6 0} Flow 251: {18 57 0} 
Flow 272: {10 5 0} Flow 308: {11 18 0} {18 25 0} {25 9 0} Flow 312: {25 17 0} Flow 344: {12 13 0} {13 23 0} {23 19 0} {19 11 0} Flow 356: {12 20 0} Flow 357: {20 21 0} Flow 358: {21 22 0} Flow 360: {19 24 0} Flow 361: {22 29 0} Flow 410: {15 38 0} Flow 412: {15 39 0} Flow 446: {16 14 0} Flow 450: {16 5 0} Flow 592: {22 19 0} Flow 601: {20 12 0} Flow 679: {24 18 0} Flow 689: {24 19 0} Flow 751: {26 27 0} {27 28 0} {28 29 0} {29 11 0} Flow 759: {29 22 0} Flow 878: {30 39 0} Flow 879: {30 3 0} Flow 903: {30 31 0} Flow 911: {31 3 0} Flow 936: {31 30 0} Flow 945: {32 33 0} {33 16 0} Flow 977: {34 15 0} Flow 1010: {35 14 0} Flow 1012: {35 36 0} Flow 1025: {35 16 0} Time taken running everything: 1 seconds
