networks/zoo_78_1185/zoo_78_1185-lower.sol
<?xml version = "1.0" encoding="UTF-8" standalone="yes"?>
<CPLEXSolution version="1.2">
 <header
   problemName="networks/zoo_78_1185/zoo_78_1185-lower.lp"
   solutionName="incumbent"
   solutionIndex="-1"
   objectiveValue="38"
   solutionTypeValue="3"
   solutionTypeString="primal"
   solutionStatusValue="101"
   solutionStatusString="integer optimal solution"
   solutionMethodString="mip"
   primalFeasible="1"
   dualFeasible="1"
   MIPNodes="0"
   MIPIterations="0"
   writeLevel="3"/>
 <quality
   epInt="1.0000000000000001e-05"
   epRHS="9.9999999999999995e-07"
   maxIntInfeas="0"
   maxPrimalInfeas="0"
   maxX="1"
   maxSlack="1"/>
 <variables>
  <variable name="Y(1,5)" index="4" value="1"/>
  <variable name="Y(2,6)" index="82" value="1"/>
  <variable name="Y(3,9)" index="162" value="1"/>
  <variable name="Y(4,14)" index="244" value="1"/>
  <variable name="Y(5,15)" index="322" value="1"/>
  <variable name="Y(6,16)" index="400" value="1"/>
  <variable name="Y(7,17)" index="478" value="1"/>
  <variable name="Y(8,20)" index="558" value="1"/>
  <variable name="Y(9,29)" index="644" value="1"/>
  <variable name="Y(10,30)" index="722" value="1"/>
  <variable name="Y(11,37)" index="806" value="1"/>
  <variable name="Y(12,39)" index="885" value="1"/>
  <variable name="Y(13,1)" index="924" value="1"/>
  <variable name="Y(14,3)" index="1003" value="1"/>
  <variable name="Y(15,4)" index="1081" value="1"/>
  <variable name="Y(18,7)" index="1315" value="1"/>
  <variable name="Y(19,8)" index="1393" value="1"/>
  <variable name="Y(21,10)" index="1549" value="1"/>
  <variable name="Y(22,11)" index="1627" value="1"/>
  <variable name="Y(23,12)" index="1705" value="1"/>
  <variable name="Y(24,13)" index="1783" value="1"/>
  <variable name="Y(29,19)" index="2174" value="1"/>
  <variable name="Y(31,21)" index="2330" value="1"/>
  <variable name="Y(32,22)" index="2408" value="1"/>
  <variable name="Y(33,23)" index="2486" value="1"/>
  <variable name="Y(34,24)" index="2564" value="1"/>
  <variable name="Y(35,25)" index="2642" value="1"/>
  <variable name="Y(36,27)" index="2721" value="1"/>
  <variable name="Y(37,28)" index="2799" value="1"/>
  <variable name="Y(40,31)" index="3033" value="1"/>
  <variable name="Y(41,32)" index="3111" value="1"/>
  <variable name="Y(42,33)" index="3189" value="1"/>
  <variable name="Y(43,34)" index="3267" value="1"/>
  <variable name="Y(44,35)" index="3345" value="1"/>
  <variable name="Y(45,36)" index="3423" value="1"/>
  <variable name="Y(47,38)" index="3579" value="1"/>
  <variable name="Y(50,2)" index="3774" value="1"/>
  <variable name="Y(251,18)" index="19267" value="1"/>
  <variable name="X(1,2,2)" index="91246" value="1"/>
  <variable name="X(1,14,1)" index="92430" value="1"/>
  <variable name="X(1,40,13)" index="93627" value="1"/>
  <variable name="X(2,1,13)" index="94812" value="1"/>
  <variable name="X(2,4,15)" index="95999" value="1"/>
  <variable name="X(2,7,2)" index="97171" value="1"/>
  <variable name="X(2,41,50)" index="98404" value="1"/>
  <variable name="X(3,30,74)" index="99613" value="1"/>
  <variable name="X(3,31,40)" index="100764" value="1"/>
  <variable name="X(3,39,49)" index="101958" value="1"/>
  <variable name="X(3,42,14)" index="103108" value="1"/>
  <variable name="X(4,2,84)" index="104363" value="1"/>
  <variable name="X(4,43,15)" index="105479" value="1"/>
  <variable name="X(5,8,19)" index="106668" value="1"/>
  <variable name="X(5,10,7)" index="107841" value="1"/>
  <variable name="X(5,14,116)" index="109135" value="1"/>
  <variable name="X(5,16,130)" index="110334" value="1"/>
  <variable name="X(5,44,1)" index="111390" value="1"/>
  <variable name="X(6,7,152)" index="112726" value="1"/>
  <variable name="X(6,9,3)" index="113762" value="1"/>
  <variable name="X(6,45,2)" index="114946" value="1"/>
  <variable name="X(7,2,152)" index="116281" value="1"/>
  <variable name="X(7,6,2)" index="117316" value="1"/>
  <variable name="X(7,14,153)" index="118652" value="1"/>
  <variable name="X(7,46,18)" index="119702" value="1"/>
  <variable name="X(8,5,221)" index="121090" value="1"/>
  <variable name="X(8,17,223)" index="122277" value="1"/>
  <variable name="X(8,47,19)" index="123258" value="1"/>
  <variable name="X(9,6,223)" index="124647" value="1"/>
  <variable name="X(9,17,28)" index="125637" value="1"/>
  <variable name="X(9,25,8)" index="126802" value="1"/>
  <variable name="X(9,48,3)" index="127982" value="1"/>
  <variable name="X(10,5,272)" index="129436" value="1"/>
  <variable name="X(10,17,7)" index="130356" value="1"/>
  <variable name="X(10,49,21)" index="131555" value="1"/>
  <variable name="X(11,18,308)" index="133027" value="1"/>
  <variable name="X(11,19,8)" index="133912" value="1"/>
  <variable name="X(11,29,9)" index="135098" value="1"/>
  <variable name="X(11,50,22)" index="136296" value="1"/>
  <variable name="X(12,13,344)" index="137803" value="1"/>
  <variable name="X(12,20,356)" index="139000" value="1"/>
  <variable name="X(12,51,23)" index="139852" value="1"/>
  <variable name="X(13,12,23)" index="141037" value="1"/>
  <variable name="X(13,23,344)" index="142543" value="1"/>
  <variable name="X(13,52,24)" index="143408" value="1"/>
  <variable name="X(14,1,49)" index="144618" value="1"/>
  <variable name="X(14,5,1)" index="145755" value="1"/>
  <variable name="X(14,7,53)" index="146992" value="1"/>
  <variable name="X(14,16,6)" index="148130" value="1"/>
  <variable name="X(14,35,44)" index="149353" value="1"/>
  <variable name="X(14,36,5)" index="150499" value="1"/>
  <variable name="X(14,53,4)" index="151683" value="1"/>
  <variable name="X(15,34,43)" index="152907" value="1"/>
  <variable name="X(15,38,410)" index="154459" value="1"/>
  <variable name="X(15,39,412)" index="155646" value="1"/>
  <variable name="X(15,54,5)" index="156424" value="1"/>
  <variable name="X(16,5,450)" index="158054" value="1"/>
  <variable name="X(16,14,446)" index="159235" value="1"/>
  <variable name="X(16,33,41)" index="160015" value="1"/>
  <variable name="X(16,35,147)" index="161306" value="1"/>
  <variable name="X(16,55,6)" index="162350" value="1"/>
  <variable name="X(17,8,157)" index="163686" value="1"/>
  <variable name="X(17,9,123)" index="164837" value="1"/>
  <variable name="X(17,10,159)" index="166058" value="1"/>
  <variable name="X(17,25,58)" index="167142" value="1"/>
  <variable name="X(17,56,7)" index="168276" value="1"/>
  <variable name="X(18,11,8)" index="169462" value="1"/>
  <variable name="X(18,24,34)" index="170673" value="1"/>
  <variable name="X(18,25,308)" index="172132" value="1"/>
  <variable name="X(18,57,251)" index="173260" value="1"/>
  <variable name="X(19,11,344)" index="174538" value="1"/>
  <variable name="X(19,22,8)" index="175387" value="1"/>
  <variable name="X(19,23,23)" index="176587" value="1"/>
  <variable name="X(19,24,360)" index="178109" value="1"/>
  <variable name="X(19,58,29)" index="178963" value="1"/>
  <variable name="X(20,12,601)" index="180720" value="1"/>
  <variable name="X(20,21,357)" index="181661" value="1"/>
  <variable name="X(20,59,8)" index="182497" value="1"/>
  <variable name="X(21,20,8)" index="183682" value="1"/>
  <variable name="X(21,22,358)" index="185217" value="1"/>
  <variable name="X(21,60,31)" index="186075" value="1"/>
  <variable name="X(22,19,592)" index="187821" value="1"/>
  <variable name="X(22,21,8)" index="188422" value="1"/>
  <variable name="X(22,29,361)" index="189960" value="1"/>
  <variable name="X(22,61,32)" index="190816" value="1"/>
  <variable name="X(23,13,23)" index="191992" value="1"/>
  <variable name="X(23,19,344)" index="193498" value="1"/>
  <variable name="X(23,62,33)" index="194372" value="1"/>
  <variable name="X(24,18,679)" index="196203" value="1"/>
  <variable name="X(24,19,689)" index="197398" value="1"/>
  <variable name="X(24,63,34)" index="197928" value="1"/>
  <variable name="X(25,9,308)" index="199387" value="1"/>
  <variable name="X(25,17,312)" index="200576" value="1"/>
  <variable name="X(25,18,8)" index="201457" value="1"/>
  <variable name="X(25,64,35)" index="202669" value="1"/>
  <variable name="X(26,27,751)" index="204570" value="1"/>
  <variable name="X(27,28,751)" index="205755" value="1"/>
  <variable name="X(27,66,36)" index="206225" value="1"/>
  <variable name="X(28,27,36)" index="207410" value="1"/>
  <variable name="X(28,29,751)" index="209310" value="1"/>
  <variable name="X(28,67,37)" index="209781" value="1"/>
  <variable name="X(29,11,751)" index="211680" value="1"/>
  <variable name="X(29,22,759)" index="212873" value="1"/>
  <variable name="X(29,28,36)" index="213335" value="1"/>
  <variable name="X(29,68,9)" index="214493" value="1"/>
  <variable name="X(30,3,879)" index="216548" value="1"/>
  <variable name="X(30,31,903)" index="217757" value="1"/>
  <variable name="X(30,39,878)" index="218917" value="1"/>
  <variable name="X(30,69,10)" index="219234" value="1"/>
  <variable name="X(31,3,911)" index="221320" value="1"/>
  <variable name="X(31,30,936)" index="222530" value="1"/>
  <variable name="X(31,70,40)" index="222819" value="1"/>
  <variable name="X(32,33,945)" index="224909" value="1"/>
  <variable name="X(32,71,41)" index="225190" value="1"/>
  <variable name="X(33,16,945)" index="227279" value="1"/>
  <variable name="X(33,32,41)" index="227560" value="1"/>
  <variable name="X(33,72,42)" index="228746" value="1"/>
  <variable name="X(34,15,977)" index="230866" value="1"/>
  <variable name="X(34,73,43)" index="231117" value="1"/>
  <variable name="X(35,14,1010)" index="233269" value="1"/>
  <variable name="X(35,16,1025)" index="234469" value="1"/>
  <variable name="X(35,36,1012)" index="235641" value="1"/>
  <variable name="X(35,74,44)" index="235858" value="1"/>
  <variable name="X(36,14,49)" index="237048" value="1"/>
  <variable name="X(36,35,79)" index="238263" value="1"/>
  <variable name="X(36,37,5)" index="239374" value="1"/>
  <variable name="X(36,75,45)" index="240599" value="1"/>
  <variable name="X(37,36,49)" index="241788" value="1"/>
  <variable name="X(37,38,5)" index="242929" value="1"/>
  <variable name="X(37,76,11)" index="244120" value="1"/>
  <variable name="X(38,15,5)" index="245299" value="1"/>
  <variable name="X(38,37,49)" index="246528" value="1"/>
  <variable name="X(38,39,10)" index="247674" value="1"/>
  <variable name="X(38,77,47)" index="248896" value="1"/>
  <variable name="X(39,3,14)" index="250048" value="1"/>
  <variable name="X(39,15,61)" index="251280" value="1"/>
  <variable name="X(39,30,10)" index="252414" value="1"/>
  <variable name="X(39,38,49)" index="253638" value="1"/>
  <variable name="X(39,78,12)" index="254786" value="1"/>
 </variables>
</CPLEXSolution>
